c Result of efficient AIG-to-CNF conversion using package CNF
p cnf 133 505
-2 3 92 0
-2 -3 -92 0
2 -3 92 0
2 3 -92 0
-3 4 46 0
-3 -4 -46 0
3 -4 46 0
3 4 -46 0
-4 -5 -25 0
-4 5 25 0
4 5 -25 0
4 -5 25 0
-5 -6 -11 0
-5 6 11 0
5 6 -11 0
5 -6 11 0
6 -7 -8 0
-6 7 0
-6 8 0
7 -128 -130 0
-7 128 0
-7 130 0
8 -9 -10 0
-8 9 0
-8 10 0
9 -123 -128 0
-9 123 0
-9 128 0
10 -130 -131 0
-10 130 0
-10 131 0
11 -12 -14 0
-11 12 0
-11 14 0
-12 13 0
12 -13 0
13 -7 8 0
-13 7 0
-13 -8 0
-14 15 16 0
-14 16 24 0
-14 15 24 0
14 -16 -24 0
14 -15 -16 0
14 -15 -24 0
-15 -9 -10 0
-15 9 10 0
15 9 -10 0
15 -9 10 0
-16 17 22 0
-16 18 19 0
-16 18 22 0
-16 17 19 0
16 -17 -18 0
16 -19 -22 0
17 -126 -128 0
-17 126 0
-17 128 0
18 -125 -126 -128 -131 0
-18 131 0
-18 125 0
-18 128 0
-18 126 0
-19 -20 -21 0
-19 20 21 0
19 20 -21 0
19 -20 21 0
20 -123 -131 0
-20 123 0
-20 131 0
21 -124 -130 0
-21 124 0
-21 130 0
-22 23 0
22 -23 0
23 -17 18 0
-23 17 0
-23 -18 0
24 -20 -21 0
-24 20 0
-24 21 0
25 -26 -27 0
-25 26 0
-25 27 0
-26 12 14 0
-26 -12 -14 0
26 -12 14 0
26 12 -14 0
27 -28 -30 0
-27 28 0
-27 30 0
-28 24 29 0
-28 -24 -29 0
28 -24 29 0
28 24 -29 0
-29 15 16 0
-29 -15 -16 0
29 -15 16 0
29 15 -16 0
-30 31 32 0
-30 32 45 0
-30 31 45 0
30 -32 -45 0
30 -31 -32 0
30 -31 -45 0
-31 19 22 0
-31 -19 -22 0
31 -19 22 0
31 19 -22 0
-32 33 36 0
-32 36 42 0
-32 33 42 0
32 -33 -42 0
32 -36 -42 0
32 -33 -36 0
-33 -34 -35 0
-33 34 35 0
33 34 -35 0
33 -34 35 0
34 -125 -128 0
-34 125 0
-34 128 0
35 -126 -131 0
-35 126 0
-35 131 0
-36 37 38 0
-36 37 39 0
36 -37 0
36 -38 -39 0
37 -125 -128 -129 -131 0
-37 131 0
-37 125 0
-37 129 0
-37 128 0
38 -124 -126 0
-38 124 0
-38 126 0
-39 -40 -41 0
-39 40 41 0
39 40 -41 0
39 -40 41 0
40 -128 -129 0
-40 128 0
-40 129 0
41 -125 -131 0
-41 125 0
-41 131 0
-42 -43 -44 0
-42 43 44 0
42 43 -44 0
42 -43 44 0
43 -123 -124 0
-43 123 0
-43 124 0
44 -130 -132 0
-44 130 0
-44 132 0
45 -43 -44 0
-45 43 0
-45 44 0
-46 47 68 0
-46 47 48 0
-46 48 68 0
46 -48 -68 0
46 -47 -68 0
46 -47 -48 0
-47 -26 -27 0
-47 26 27 0
47 26 -27 0
47 -26 27 0
48 -49 -50 0
-48 49 0
-48 50 0
-49 28 30 0
-49 -28 -30 0
49 -28 30 0
49 28 -30 0
50 -51 -53 0
-50 51 0
-50 53 0
-51 45 52 0
-51 -45 -52 0
51 -45 52 0
51 45 -52 0
-52 31 32 0
-52 -31 -32 0
52 -31 32 0
52 31 -32 0
-53 54 56 0
-53 56 67 0
-53 54 67 0
53 -56 -67 0
53 -54 -56 0
53 -54 -67 0
-54 42 55 0
-54 -42 -55 0
54 -42 55 0
54 42 -55 0
-55 33 36 0
-55 -33 -36 0
55 -33 36 0
55 33 -36 0
-56 57 58 0
-56 58 64 0
-56 57 64 0
56 -57 -64 0
56 -58 -64 0
56 -57 -58 0
-57 38 39 0
-57 -38 -39 0
57 -38 39 0
57 38 -39 0
-58 59 60 0
-58 59 61 0
58 -59 0
58 -60 -61 0
59 -124 -125 -129 -131 0
-59 131 0
-59 124 0
-59 129 0
-59 125 0
60 -126 -132 0
-60 126 0
-60 132 0
-61 -62 -63 0
-61 62 63 0
61 62 -63 0
61 -62 63 0
62 -129 -131 0
-62 129 0
-62 131 0
63 -124 -125 0
-63 124 0
-63 125 0
-64 -65 -66 0
-64 65 66 0
64 65 -66 0
64 -65 66 0
65 -123 -132 0
-65 123 0
-65 132 0
66 -127 -130 0
-66 127 0
-66 130 0
67 -65 -66 0
-67 65 0
-67 66 0
-68 70 85 0
-68 69 70 0
-68 69 85 0
68 -69 -70 0
68 -70 -85 0
68 -69 -85 0
-69 -49 -50 0
-69 49 50 0
69 49 -50 0
69 -49 50 0
70 -71 -72 0
-70 71 0
-70 72 0
-71 51 53 0
-71 -51 -53 0
71 -51 53 0
71 51 -53 0
72 -73 -75 0
-72 73 0
-72 75 0
-73 67 74 0
-73 -67 -74 0
73 -67 74 0
73 67 -74 0
-74 54 56 0
-74 -54 -56 0
74 -54 56 0
74 54 -56 0
75 -76 -78 0
-75 76 0
-75 78 0
-76 64 77 0
-76 -64 -77 0
76 -64 77 0
76 64 -77 0
-77 57 58 0
-77 -57 -58 0
77 -57 58 0
77 57 -58 0
-78 79 80 0
-78 80 84 0
-78 79 84 0
78 -80 -84 0
78 -79 -80 0
78 -79 -84 0
-79 60 61 0
-79 -60 -61 0
79 -60 61 0
79 60 -61 0
-80 81 83 0
-80 82 83 0
-80 81 82 0
80 -81 -82 0
80 -82 -83 0
80 -81 -83 0
81 -124 -129 0
-81 124 0
-81 129 0
82 -125 -132 0
-82 125 0
-82 132 0
83 -126 -127 0
-83 126 0
-83 127 0
84 -123 -127 0
-84 123 0
-84 127 0
85 71 -72 -86 0
85 -71 72 -86 0
-85 86 0
-85 71 72 0
-85 -71 -72 0
86 -73 76 -78 -87 0
86 -73 -76 78 -87 0
-86 87 0
-86 76 78 0
-86 73 0
-86 -76 -78 0
87 84 -88 -89 -91 0
87 -84 88 -89 -91 0
-87 89 0
-87 84 88 0
-87 91 0
-87 -84 -88 0
-88 79 80 0
-88 -79 -80 0
88 -79 80 0
88 79 -80 0
-89 83 90 0
-89 -83 -90 0
89 -83 90 0
89 83 -90 0
-90 -81 -82 0
-90 81 82 0
90 81 -82 0
90 -81 82 0
91 -125 -127 -129 -132 0
-91 132 0
-91 125 0
-91 129 0
-91 127 0
-92 7 93 0
-92 93 95 0
-92 7 95 0
92 -93 -95 0
92 -7 -93 0
92 -7 -95 0
-93 123 94 0
-93 10 94 0
-93 123 10 0
-93 128 94 0
-93 128 10 0
93 -10 -94 0
93 -123 -128 -94 0
93 -123 -128 -10 0
-94 17 21 0
-94 20 21 0
-94 17 20 0
94 -17 -20 0
94 -20 -21 0
94 -17 -21 0
-95 96 97 0
-95 97 101 0
-95 96 101 0
95 -96 -101 0
95 -97 -101 0
95 -96 -97 0
-96 15 94 0
-96 -15 -94 0
96 -15 94 0
96 15 -94 0
-97 18 98 0
-97 98 100 0
-97 18 100 0
97 -98 -100 0
97 -18 -98 0
97 -18 -100 0
-98 20 99 0
-98 -20 -99 0
98 -20 99 0
98 20 -99 0
-99 -17 -21 0
-99 17 21 0
99 17 -21 0
99 -17 21 0
-100 37 44 0
-100 43 44 0
-100 37 43 0
100 -37 -43 0
100 -43 -44 0
100 -37 -44 0
-101 102 105 0
-101 105 107 0
-101 102 107 0
101 -102 -107 0
101 -105 -107 0
101 -102 -105 0
-102 33 103 0
-102 103 104 0
-102 33 104 0
102 -33 -104 0
102 -103 -104 0
102 -33 -103 0
-103 38 66 0
-103 65 66 0
-103 38 65 0
103 -38 -65 0
103 -65 -66 0
103 -38 -66 0
-104 37 42 0
-104 -37 -42 0
104 -37 42 0
104 37 -42 0
-105 100 106 0
-105 -100 -106 0
105 -100 106 0
105 100 -106 0
-106 18 98 0
-106 -18 -98 0
106 -18 98 0
106 18 -98 0
-107 108 111 0
-107 111 113 0
-107 108 113 0
107 -108 -113 0
107 -111 -113 0
107 -108 -111 0
-108 39 109 0
-108 39 59 0
-108 59 109 0
108 -59 -109 0
108 -39 -109 0
108 -39 -59 0
-109 65 110 0
-109 -65 -110 0
109 -65 110 0
109 65 -110 0
-110 -38 -66 0
-110 38 66 0
110 38 -66 0
110 -38 66 0
-111 104 112 0
-111 -104 -112 0
111 -104 112 0
111 104 -112 0
-112 33 103 0
-112 -33 -103 0
112 -33 103 0
112 33 -103 0
-113 114 116 0
-113 116 118 0
-113 114 118 0
113 -114 -118 0
113 -116 -118 0
113 -114 -116 0
-114 60 115 0
-114 84 115 0
-114 60 84 0
114 -60 -84 0
114 -84 -115 0
114 -60 -115 0
115 -82 -83 0
-115 82 0
-115 83 0
-116 109 117 0
-116 -109 -117 0
116 -109 117 0
116 109 -117 0
-117 -39 -59 0
-117 39 59 0
117 39 -59 0
117 -39 59 0
-118 61 119 0
-118 119 121 0
-118 61 121 0
118 -61 -121 0
118 -119 -121 0
118 -61 -119 0
-119 115 120 0
-119 -115 -120 0
119 -115 120 0
119 115 -120 0
-120 -60 -84 0
-120 60 84 0
120 60 -84 0
120 -60 84 0
-121 91 122 0
-121 81 91 0
-121 81 122 0
121 -81 -91 0
121 -91 -122 0
121 -81 -122 0
-122 -82 -83 0
-122 82 83 0
122 82 -83 0
122 -82 83 0
-133 0
2 0

